NAME: bip_50_9
TYPE: TSP
COMMENT: bip_50_9
DIMENSION: 50
EDGE_WEIGHT_TYPE: EUC_2D
NODE_COORD_SECTION
1 10 91
2 6 39
3 91 72
4 90 5
5 57 88
6 0 31
7 46 62
8 46 78
9 36 67
10 68 70
11 34 30
12 48 7
13 26 8
14 57 11
15 7 48
16 3 60
17 67 39
18 52 34
19 23 34
20 84 17
21 67 32
22 23 28
23 95 91
24 86 69
25 71 61
26 490 499
27 461 499
28 427 423
29 493 454
30 422 481
31 411 441
32 420 433
33 470 448
34 490 480
35 411 498
36 486 498
37 420 440
38 467 469
39 436 456
40 470 407
41 467 402
42 464 411
43 412 427
44 481 434
45 483 485
46 467 402
47 438 403
48 492 423
49 415 401
50 436 424
